37 37
15 12
4 5
1 18
3 16
12 13
33 6
29 1
27 3
31 10
22 17
20 4
34 8
17 15
9 16
25 3
36 15
2 13
10 6
7 10
23 1
37 5
18 9
5 11
6 8
30 18
8 12
21 2
32 9
19 11
24 4
28 19
13 14
26 17
16 7
11 14
35 7
14 2
